(set-logic LIA)

(synth-fun floorIsOrdered ( (__iv__input_0_ Int) (__iv__input_1_ Int) (__iv__input_2_ Int) (__iv__input_3_ Int) (__iv__input_4_ Int) (__iv__input_5_ Int) (__iv__input_6_ Int) (__iv__input_7_ Int) (__iv__input_8_ Int) (__iv__input_9_ Int) (__iv__input_10_ Int) (__iv__input_11_ Int) (__iv__input_12_ Int) (__iv__input_13_ Int)) Int
((Start Int (ntInt))
(ntInt Int (
	0 1 2 3 4 -1 5 
	__iv__input_0_ __iv__input_1_ __iv__input_2_ __iv__input_3_ __iv__input_4_ __iv__input_5_ __iv__input_6_ __iv__input_7_ __iv__input_8_ __iv__input_9_ __iv__input_10_ __iv__input_11_ __iv__input_12_ __iv__input_13_ 
	(* ntInt ntInt)
	(ite ntBool ntInt ntInt)
	(+ ntInt ntInt)
	(- ntInt ntInt)
))
(ntBool Bool (
	(not ntBool)
	(or ntBool ntBool)
	(and ntBool ntBool)
	(< ntInt ntInt)
	(= ntInt ntInt)
	(>= ntInt ntInt)
))
))

(constraint (=(floorIsOrdered 2 -2 -36 24 -13 2 20 -26 3 7 -11 -25 17 7) 0))
(constraint (=(floorIsOrdered 3 -1 0 0 0 10 0 3 0 1 -11 0 0 -2) 1))
(constraint (=(floorIsOrdered 1 -1 -1 -1 0 0 10 4 0 0 0 -2 30 25) 0))
(constraint (=(floorIsOrdered 1 1 6 0 0 24 12 0 0 31 -36 -12 0 0) 0))
(constraint (=(floorIsOrdered 0 -116 11 62 4 22 -60 -7 24 -7 -37 29 77 -26) 0))
(constraint (=(floorIsOrdered 0 0 -2 18 -3 27 1 27 -22 0 -2 0 31 0) 1))
(constraint (=(floorIsOrdered 3 1 0 27 3 -2 -28 0 0 -1 0 0 0 -2) 1))
(constraint (=(floorIsOrdered 2 1 6 0 -28 -23 0 0 -1 0 0 3 6 11) 0))
(constraint (=(floorIsOrdered 0 -16 1 33 20 0 -3 11 0 0 -2 -4 0 16) 0))
(constraint (=(floorIsOrdered 2 1 0 0 -2 -15 -22 0 -47 2 -16 0 -7 0) 0))
(constraint (=(floorIsOrdered 0 37 22 30 -2 -10 30 -37 -3 -23 -2 1 -2 -47) 0))
(constraint (=(floorIsOrdered 0 -54 32 30 35 -16 77 -113 29 -18 0 -37 39 24) 0))
(constraint (=(floorIsOrdered 0 1 0 0 0 -14 0 0 0 0 -2 0 -5 0) 0))
(constraint (=(floorIsOrdered 0 0 25 21 0 18 -31 0 4 0 -11 2 0 0) 0))
(constraint (=(floorIsOrdered 0 9 -21 -17 11 -5 9 -26 15 -49 -32 -27 -24 -10) 0))
(constraint (=(floorIsOrdered 0 1 0 11 23 0 23 -18 0 0 -2 0 0 0) 0))
(constraint (=(floorIsOrdered 0 -1 0 0 24 -16 -5 -17 8 0 -2 29 -2 -29) 0))
(constraint (=(floorIsOrdered 0 -1 -1 0 0 27 -2 0 0 0 -2 -3 -42 0) 1))
(constraint (=(floorIsOrdered 2 1 5 0 1 0 21 -7 0 0 0 0 -2 0) 1))
(constraint (=(floorIsOrdered 0 1 1 1 0 0 -18 0 -9 31 -36 0 -4 0) 1))
(constraint (=(floorIsOrdered 0 0 1 21 27 17 -4 -4 28 57 15 -20 11 17) 1))
(constraint (=(floorIsOrdered 0 -50 -2 -49 -17 -13 -121 -8 71 3 35 -26 9 12) 0))
(constraint (=(floorIsOrdered 3 1 22 0 0 11 -21 -1 17 0 0 0 0 12) 0))
(constraint (=(floorIsOrdered 1 -1 -1 -22 -27 0 0 2 0 0 31 -10 30 25) 0))
(constraint (=(floorIsOrdered 0 -81 -3 2 -69 -6 -124 12 10 -7 -11 -50 99 -39) 0))
(constraint (=(floorIsOrdered 2 -2 -20 -12 -19 -3 15 -26 -2 -2 -25 6 17 7) 0))
(constraint (=(floorIsOrdered 0 0 -33 0 0 -1 -3 3 26 -6 -10 20 27 35) 0))
(constraint (=(floorIsOrdered 2 -1 -13 -18 0 29 0 0 1 0 -19 0 -2 -26) 1))
(constraint (=(floorIsOrdered 0 1 -2 -1 -23 0 -1 0 0 0 -2 0 0 0) 0))
(constraint (=(floorIsOrdered 0 30 -35 27 11 -18 -39 69 -5 -3 -13 -6 27 -13) 0))
(constraint (=(floorIsOrdered 1 1 23 -20 -29 1 0 -13 0 -17 -25 -2 0 -22) 0))
(constraint (=(floorIsOrdered 2 -36 -60 12 12 28 0 -6 -36 -18 -22 17 45 -34) 0))
(constraint (=(floorIsOrdered 0 0 1 -16 0 0 0 25 0 0 -20 0 0 -31) 1))
(constraint (=(floorIsOrdered 0 0 23 -24 11 0 -7 30 9 -29 -2 0 31 6) 0))
(constraint (=(floorIsOrdered 1 -1 -1 -22 0 0 0 -2 0 0 0 -10 30 25) 0))
(constraint (=(floorIsOrdered 0 0 -20 33 6 2 20 -26 3 12 1 -25 -1 15) 1))
(constraint (=(floorIsOrdered 0 1 -4 17 0 0 0 31 3 0 25 23 0 21) 0))
(constraint (=(floorIsOrdered 3 1 18 -30 0 -13 0 34 -29 11 0 40 -25 -2) 1))
(constraint (=(floorIsOrdered 1 -1 -1 -1 0 -27 30 -2 -26 0 11 -2 0 0) 0))
(constraint (=(floorIsOrdered 0 -26 3 22 13 -7 19 0 -20 37 1 0 -15 0) 1))
(check-synth)